&CONTROL
    calculation = "scf"
    max_seconds =  8.64000e+04
    outdir      = "/tmp/"
    prefix      = "graphene"
    pseudo_dir  = "./"
/

&SYSTEM
    a     =  2.51529e+01
    b     =  3.31372e+01
    c     =  1.52200e+01
    ibrav = 8
    nat   = 92
    ntyp  = 3
    degauss     =  1.00000e-02
    ecutrho     =  4.00000e+02
    ecutwfc     =  4.00000e+01
    occupations = "smearing"
    smearing    = "fermi-dirac"
/

&ELECTRONS
    conv_thr         =  1.00000e-08
    electron_maxstep = 200
    mixing_beta      =  7.00000e-01
    startingpot      = "atomic"
    startingwfc      = "atomic+random"
/

K_POINTS {automatic}
 1  1  1  0 0 0

ATOMIC_SPECIES
C      12.01070  C.pbe-rrkjus.UPF
O      15.99940  O.pbe-rrkjus.UPF
H       1.00794  H.pbe-rrkjus.UPF

ATOMIC_POSITIONS {alat}
C       6.895502  14.973656   7.561224
C       6.895502  16.383656   7.561224
C       5.674502  17.088656   7.561224
C       6.895502  19.203656   7.561224
C       5.674502  18.498656   7.561224
C       6.895502  20.613656   7.561224
C       9.337702  10.743656   7.561224
C       9.337702  12.153656   7.561224
C       8.116602  12.858656   7.561224
C       9.337702  14.973656   7.561224
C       8.116602  14.268656   7.561224
C       9.337702  16.383656   7.561224
C       8.116602  17.088656   7.561224
C       9.337702  19.203656   7.561224
C       8.116602  18.498656   7.561224
C       9.337702  20.613656   7.561224
C       8.116602  21.318656   7.561224
C       9.337702  23.433656   7.561224
C       8.116602  22.728656   7.561224
C       9.337702  24.843656   7.561224
C      11.779902   6.513656   7.561224
C      11.779902   7.923656   7.561224
C      10.558802   8.628656   7.561224
C      11.779902  10.743656   7.561224
C      10.558802  10.038656   7.561224
C      11.779902  12.153656   7.561224
C      10.558802  12.858656   7.561224
C      11.779902  14.973656   7.561224
C      10.558802  14.268656   7.561224
C      11.779902  16.383656   7.561224
C      10.558802  17.088656   7.561224
C      11.779902  19.203656   7.561224
C      10.558802  18.498656   7.561224
C      11.779902  20.613656   7.561224
C      10.558802  21.318656   7.561224
C      11.779902  23.433656   7.561224
C      10.558802  22.728656   7.561224
C      11.779902  24.843656   7.561224
C      10.558802  25.548656   7.561224
C      11.779902  27.663656   7.561224
C      10.558802  26.958656   7.561224
C      14.222102   6.513656   7.561224
C      13.001002   5.808656   7.561224
C      14.222102   7.923656   7.561224
C      13.001002   8.628656   7.561224
C      14.222102  10.743656   7.561224
C      13.001002  10.038656   7.561224
C      14.222102  12.153656   7.561224
C      13.001002  12.858656   7.561224
C      14.222102  14.973656   7.561224
C      13.001002  14.268656   7.561224
C      14.222102  16.383656   7.561224
C      13.001002  17.088656   7.561224
C      14.222102  19.203656   7.561224
C      13.001002  18.498656   7.561224
C      14.222102  20.613656   7.561224
C      13.001002  21.318656   7.561224
C      14.222102  23.433656   7.561224
C      13.001002  22.728656   7.561224
C      14.222102  24.843656   7.561224
C      13.001002  25.548656   7.561224
C      16.664302   7.923656   7.561224
C      15.443202   8.628656   7.561224
C      16.664302  10.743656   7.561224
C      15.443202  10.038656   7.561224
C      16.664302  12.153656   7.561224
C      15.443202  12.858656   7.561224
C      16.664302  14.973656   7.561224
C      15.443202  14.268656   7.561224
C      16.664302  16.383656   7.561224
C      15.443202  17.088656   7.561224
C      16.664302  19.203656   7.561224
C      15.443202  18.498656   7.561224
C      16.664302  20.613656   7.561224
C      15.443202  21.318656   7.561224
C      15.443202  22.728656   7.561224
C      19.106502  10.743656   7.561224
C      17.885402  10.038656   7.561224
C      19.106502  12.153656   7.561224
C      17.885402  12.858656   7.561224
C      19.106502  14.973656   7.561224
C      17.885402  14.268656   7.561224
C      19.106502  16.383656   7.561224
C      17.885402  17.088656   7.561224
C      17.885402  18.498656   7.561224
C      20.327602  12.858656   7.561224
C      20.327602  14.268656   7.561224
O      14.832652  16.736156   8.961224
O      13.001002   5.103656   8.961224
O       7.506052  14.621156   8.961224
O      11.169352  10.391156   8.961224
O      16.664302  15.678656   6.161224
O      11.779902  19.908656   8.961224
O      15.443202  13.563656   6.161224
O      15.443202  22.023656   6.161224
O       9.337702  11.448656   8.961224
O      19.106502  11.448656   8.961224
O      12.390452  23.081156   8.961224
O      11.169352  25.196156   6.161224
O      14.222102   6.513656   9.061224
H      14.222102   6.513656  10.171224
O       9.337702  16.383656   6.061224
H       9.337702  16.383656   4.951224
O      13.001002  14.268656   9.061224
H      13.001002  14.268656  10.171224
O      19.106502  14.973656   6.061224
H      19.106502  14.973656   4.951224
O       5.674502  17.088656   9.061224
H       5.674502  17.088656  10.171224
O      17.885402  17.088656   6.061224
H      17.885402  17.088656   4.951224
O       9.337702  23.433656   9.061224
H       9.337702  23.433656  10.171224
O      16.664302  20.613656   9.061224
H      16.664302  20.613656  10.171224
O      14.222102  14.973656   6.061224
H      14.222102  14.973656   4.951224
O      13.001002  12.858656   6.061224
H      13.001002  12.858656   4.951224
O      14.222102  20.613656   6.061224
H      14.222102  20.613656   4.951224
O       6.895502  16.383656   6.061224
H       6.895502  16.383656   4.951224
O       8.116602  17.088656   9.061224
H       8.116602  17.088656  10.171224
H      11.779902  28.240856   8.377824
H      10.059002  27.247256   8.377824
H       5.174702  18.787256   8.377824
H       6.395702  20.902256   8.377824
H       7.616802  23.017256   8.377824
H       8.837902  25.132256   8.377824

