&CONTROL
    calculation = "scf"
    max_seconds =  8.64000e+04
    outdir      = "/tmp/"
    prefix      = "graphene"
    pseudo_dir  = "./"
/

&SYSTEM
    a           =  8.36735e+01
    ibrav = 1
    nat   = 77
    ntyp  = 3
    degauss     =  1.00000e-02
    ecutrho     =  2.25000e+02
    ecutwfc     =  2.50000e+01
    occupations = "smearing"
    smearing    = "fermi-dirac"
/

&ELECTRONS
    conv_thr         =  1.00000e-08
    electron_maxstep = 200
    mixing_beta      =  7.00000e-01
    startingpot      = "atomic"
    startingwfc      = "atomic+random"
/

K_POINTS {automatic}
 1  1  1  0 0 0

ATOMIC_SPECIES
C      12.01070  C.pbe-rrkjus.UPF
O      15.99940  O.pbe-rrkjus.UPF
H       1.00794  H.pbe-rrkjus.UPF

ATOMIC_POSITIONS {alat}
C      35.964247  42.025032  41.836754
C      35.964247  43.435015  41.836754
C      38.406510  37.795002  41.836754
C      38.406510  39.204984  41.836754
C      37.185379  39.910017  41.836754
C      38.406510  42.025032  41.836754
C      37.185379  41.320000  41.836754
C      38.406510  43.435015  41.836754
C      37.185379  44.140048  41.836754
C      38.406510  46.254979  41.836754
C      37.185379  45.550030  41.836754
C      38.406510  47.665045  41.836754
C      40.848688  34.975037  41.836754
C      39.627557  35.679987  41.836754
C      40.848688  37.795002  41.836754
C      39.627557  37.090053  41.836754
C      40.848688  39.204984  41.836754
C      39.627557  39.910017  41.836754
C      40.848688  42.025032  41.836754
C      39.627557  41.320000  41.836754
C      40.848688  43.435015  41.836754
C      39.627557  44.140048  41.836754
C      40.848688  46.254979  41.836754
C      39.627557  45.550030  41.836754
C      40.848688  47.665045  41.836754
C      39.627557  48.369995  41.836754
C      40.848688  50.485010  41.836754
C      39.627557  49.779977  41.836754
C      42.069736  35.679987  41.836754
C      43.290867  37.795002  41.836754
C      42.069736  37.090053  41.836754
C      43.290867  39.204984  41.836754
C      42.069736  39.910017  41.836754
C      43.290867  42.025032  41.836754
C      42.069736  41.320000  41.836754
C      43.290867  43.435015  41.836754
C      42.069736  44.140048  41.836754
C      43.290867  46.254979  41.836754
C      42.069736  45.550030  41.836754
C      43.290867  47.665045  41.836754
C      42.069736  48.369995  41.836754
C      42.069736  49.779977  41.836754
C      44.511998  39.910017  41.836754
C      45.733046  42.025032  41.836754
C      44.511998  41.320000  41.836754
C      45.733046  43.435015  41.836754
C      44.511998  44.140048  41.836754
C      44.511998  45.550030  41.836754
O      37.795944  43.787531  43.236779
O      39.016992  39.557501  40.436729
O      44.511998  40.615050  43.236779
O      39.627557  45.550030  43.336769
H      39.627557  45.550030  44.446782
O      40.848688  39.204984  43.336769
H      40.848688  39.204984  44.446782
O      43.290867  37.795002  40.336739
H      43.290867  37.795002  39.226726
O      44.511998  44.140048  43.336769
H      44.511998  44.140048  44.446782
O      42.069736  44.140048  40.336739
H      42.069736  44.140048  39.226726
O      39.627557  41.320000  40.336739
H      39.627557  41.320000  39.226726
O      40.848688  37.795002  40.336739
H      40.848688  37.795002  39.226726
O      42.069736  41.320000  43.336769
H      42.069736  41.320000  44.446782
O      40.848688  43.435015  43.336769
H      40.848688  43.435015  44.446782
H      35.464465  41.736443  42.653324
H      37.906644  37.506412  42.653324
H      36.685597  39.621427  42.653324
H      39.127775  35.391397  42.653324
H      35.464465  43.723605  42.653324
H      36.685597  45.838620  42.653324
H      37.906644  47.953635  42.653324
H      39.127775  50.068650  42.653324


